(set-info :smt-lib-version 2.6)
(set-logic QF_SLIA)
(set-info :source |
Generated by: Dmitry Blotsky1, Federico Mora, Murphy Berzish, Yunhui Zheng, Ifaz Kabir, Vijay Ganesh, Zhengyang Lu
Generated on: 2018-01-24
Generator: StringFuzz
Application: Evaluate string solvers
Target solver: Z3str3, CVC4, Z3str2, Norn
Publications: Blotsky, D., Mora, F., Berzish, M., Zheng, Y., Kabir, I., & Ganesh, V. (2018). Stringfuzz: A fuzzer for string solvers. In CAV 2018.
Description: transformed by StringFuzz, a modular string and regex fuzzer, from an industrial benchmark
|)
(set-info :license "https://creativecommons.org/licenses/by/4.0/")
(set-info :category "random")
(set-info :status unknown)

(declare-const x String)
(assert (= x "ccdde`rP'\x0b'PE&EK'\x0c'[$X(h?:^,?wYaahoq69F\\1B1Rt0z#g8zy'\t'{m#^OUk1mJdf'\n'jetb&rL54>ee"))
(assert (str.in_re x (re.* (re.union (str.to_re "m#J+#'\r'\\\\f.I?3;dd") (str.to_re "{c&}r@y&!~e")))))
(check-sat)

(exit)
